(declare-fun i3 () Int)
(declare-fun it1 () Int)
(declare-fun it2 () Int)
(declare-fun it3 () Int)
(declare-fun i5 () Int)
(declare-fun it4 () Int)
(declare-fun i7 () Int)
(declare-fun it5 () Int)
(declare-fun it12 () Int)
(declare-fun it13 () Int)
(declare-fun it14 () Int)
(declare-fun it15 () Int)
(declare-fun it16 () Int)
(declare-fun it22 () Int)
(declare-fun it23 () Int)
(declare-fun it24 () Int)
(declare-fun it25 () Int)
(declare-fun it26 () Int)
(declare-fun it33 () Int)
(declare-fun it34 () Int)
(declare-fun it35 () Int)
(declare-fun it36 () Int)
(declare-fun it37 () Int)
(assert (= i3 2))
(assert (= it1 3))
(assert (= it2 1))
(assert (= it3 1))
(assert (= (+ it4 (* (- 1) i5)) 1))
(assert (= (+ it5 (* (- 1) i7)) 0))
(assert (and (not (<= it5 0)) (= it1 3)))
(assert (= (+ it12 (* (- 1) it1)) 0))
(assert (= (+ it13 (* (- 1) it2 (exp 2 it5))) 0))
(assert (= (+ it14 (* (- 1) it3)) 0))
(assert (= (+ it15 (* (- 1) it5) (* (- 1) it4)) 0))
(assert (= it16 0))
(assert (and (not (>= it16 1)) (= it12 3)))
(assert (= it22 4))
(assert (= (+ it23 (* (- 1) it13)) 0))
(assert (= (+ it24 (* (- 1) it14)) 0))
(assert (= (+ it25 (* (- 1) it15)) 1))
(assert (= (+ it26 (* (- 1) it16)) 0))
(assert (and (not (<= it23 0)) (= it22 4)))
(assert (= (+ it33 (* (- 1) it22)) 0))
(assert (= it34 0))
(assert (= (+ it35 (* (- 1) it24 (exp 2 it23))) 0))
(assert (= (+ it36 (* (- 1) it25) (* (- 1) it23)) 0))
(assert (= (+ it37 (* (- 1) it26)) 0))
(check-sat)